p cnf 875 2090
1 2 3  0
-4 1 0
4 -1 0
-5 4 2 0
5 -4 0
5 -2 0
-4 -2 0
-5 -3 0
6 7 8  0
-9 6 0
9 -6 0
-10 9 7 0
10 -9 0
10 -7 0
-9 -7 0
-10 -8 0
11 12 13  0
-14 11 0
14 -11 0
-15 14 12 0
15 -14 0
15 -12 0
-14 -12 0
-15 -13 0
16 17 18  0
-19 16 0
19 -16 0
-20 19 17 0
20 -19 0
20 -17 0
-19 -17 0
-20 -18 0
21 22 23  0
-24 21 0
24 -21 0
-25 24 22 0
25 -24 0
25 -22 0
-24 -22 0
-25 -23 0
26 27 28  0
-29 26 0
29 -26 0
-30 29 27 0
30 -29 0
30 -27 0
-29 -27 0
-30 -28 0
31 32 33  0
-34 31 0
34 -31 0
-35 34 32 0
35 -34 0
35 -32 0
-34 -32 0
-35 -33 0
36 37 38  0
-39 36 0
39 -36 0
-40 39 37 0
40 -39 0
40 -37 0
-39 -37 0
-40 -38 0
41 42 43  0
-44 41 0
44 -41 0
-45 44 42 0
45 -44 0
45 -42 0
-44 -42 0
-45 -43 0
46 47 48  0
-49 46 0
49 -46 0
-50 49 47 0
50 -49 0
50 -47 0
-49 -47 0
-50 -48 0
51 52 53  0
-54 51 0
54 -51 0
-55 54 52 0
55 -54 0
55 -52 0
-54 -52 0
-55 -53 0
56 57 58  0
-59 56 0
59 -56 0
-60 59 57 0
60 -59 0
60 -57 0
-59 -57 0
-60 -58 0
61 62 63  0
-64 61 0
64 -61 0
-65 64 62 0
65 -64 0
65 -62 0
-64 -62 0
-65 -63 0
66 67 68  0
-69 66 0
69 -66 0
-70 69 67 0
70 -69 0
70 -67 0
-69 -67 0
-70 -68 0
71 72 73  0
-74 71 0
74 -71 0
-75 74 72 0
75 -74 0
75 -72 0
-74 -72 0
-75 -73 0
76 77 78  0
-79 76 0
79 -76 0
-80 79 77 0
80 -79 0
80 -77 0
-79 -77 0
-80 -78 0
81 82 83  0
-84 81 0
84 -81 0
-85 84 82 0
85 -84 0
85 -82 0
-84 -82 0
-85 -83 0
86 87 88  0
-89 86 0
89 -86 0
-90 89 87 0
90 -89 0
90 -87 0
-89 -87 0
-90 -88 0
91 92 93  0
-94 91 0
94 -91 0
-95 94 92 0
95 -94 0
95 -92 0
-94 -92 0
-95 -93 0
96 97 98  0
-99 96 0
99 -96 0
-100 99 97 0
100 -99 0
100 -97 0
-99 -97 0
-100 -98 0
101 102 103  0
-104 101 0
104 -101 0
-105 104 102 0
105 -104 0
105 -102 0
-104 -102 0
-105 -103 0
106 107 108  0
-109 106 0
109 -106 0
-110 109 107 0
110 -109 0
110 -107 0
-109 -107 0
-110 -108 0
111 112 113  0
-114 111 0
114 -111 0
-115 114 112 0
115 -114 0
115 -112 0
-114 -112 0
-115 -113 0
116 117 118  0
-119 116 0
119 -116 0
-120 119 117 0
120 -119 0
120 -117 0
-119 -117 0
-120 -118 0
121 122 123  0
-124 121 0
124 -121 0
-125 124 122 0
125 -124 0
125 -122 0
-124 -122 0
-125 -123 0
126 127 128  0
-129 126 0
129 -126 0
-130 129 127 0
130 -129 0
130 -127 0
-129 -127 0
-130 -128 0
131 132 133  0
-134 131 0
134 -131 0
-135 134 132 0
135 -134 0
135 -132 0
-134 -132 0
-135 -133 0
136 137 138  0
-139 136 0
139 -136 0
-140 139 137 0
140 -139 0
140 -137 0
-139 -137 0
-140 -138 0
141 142 143  0
-144 141 0
144 -141 0
-145 144 142 0
145 -144 0
145 -142 0
-144 -142 0
-145 -143 0
146 147 148  0
-149 146 0
149 -146 0
-150 149 147 0
150 -149 0
150 -147 0
-149 -147 0
-150 -148 0
151 152 153  0
-154 151 0
154 -151 0
-155 154 152 0
155 -154 0
155 -152 0
-154 -152 0
-155 -153 0
156 157 158  0
-159 156 0
159 -156 0
-160 159 157 0
160 -159 0
160 -157 0
-159 -157 0
-160 -158 0
161 162 163  0
-164 161 0
164 -161 0
-165 164 162 0
165 -164 0
165 -162 0
-164 -162 0
-165 -163 0
166 167 168  0
-169 166 0
169 -166 0
-170 169 167 0
170 -169 0
170 -167 0
-169 -167 0
-170 -168 0
171 172 173  0
-174 171 0
174 -171 0
-175 174 172 0
175 -174 0
175 -172 0
-174 -172 0
-175 -173 0
176 177 178  0
-179 176 0
179 -176 0
-180 179 177 0
180 -179 0
180 -177 0
-179 -177 0
-180 -178 0
181 182 183  0
-184 181 0
184 -181 0
-185 184 182 0
185 -184 0
185 -182 0
-184 -182 0
-185 -183 0
186 187 188  0
-189 186 0
189 -186 0
-190 189 187 0
190 -189 0
190 -187 0
-189 -187 0
-190 -188 0
191 192 193  0
-194 191 0
194 -191 0
-195 194 192 0
195 -194 0
195 -192 0
-194 -192 0
-195 -193 0
196 197 198  0
-199 196 0
199 -196 0
-200 199 197 0
200 -199 0
200 -197 0
-199 -197 0
-200 -198 0
201 202 203  0
-204 201 0
204 -201 0
-205 204 202 0
205 -204 0
205 -202 0
-204 -202 0
-205 -203 0
206 207 208  0
-209 206 0
209 -206 0
-210 209 207 0
210 -209 0
210 -207 0
-209 -207 0
-210 -208 0
211 212 213  0
-214 211 0
214 -211 0
-215 214 212 0
215 -214 0
215 -212 0
-214 -212 0
-215 -213 0
216 217 218  0
-219 216 0
219 -216 0
-220 219 217 0
220 -219 0
220 -217 0
-219 -217 0
-220 -218 0
221 222 223  0
-224 221 0
224 -221 0
-225 224 222 0
225 -224 0
225 -222 0
-224 -222 0
-225 -223 0
226 227 228  0
-229 226 0
229 -226 0
-230 229 227 0
230 -229 0
230 -227 0
-229 -227 0
-230 -228 0
231 232 233  0
-234 231 0
234 -231 0
-235 234 232 0
235 -234 0
235 -232 0
-234 -232 0
-235 -233 0
236 237 238  0
-239 236 0
239 -236 0
-240 239 237 0
240 -239 0
240 -237 0
-239 -237 0
-240 -238 0
241 242 243  0
-244 241 0
244 -241 0
-245 244 242 0
245 -244 0
245 -242 0
-244 -242 0
-245 -243 0
246 247 248  0
-249 246 0
249 -246 0
-250 249 247 0
250 -249 0
250 -247 0
-249 -247 0
-250 -248 0
251 252 253  0
-254 251 0
254 -251 0
-255 254 252 0
255 -254 0
255 -252 0
-254 -252 0
-255 -253 0
256 257 258  0
-259 256 0
259 -256 0
-260 259 257 0
260 -259 0
260 -257 0
-259 -257 0
-260 -258 0
261 262 263  0
-264 261 0
264 -261 0
-265 264 262 0
265 -264 0
265 -262 0
-264 -262 0
-265 -263 0
266 267 268  0
-269 266 0
269 -266 0
-270 269 267 0
270 -269 0
270 -267 0
-269 -267 0
-270 -268 0
271 272 273  0
-274 271 0
274 -271 0
-275 274 272 0
275 -274 0
275 -272 0
-274 -272 0
-275 -273 0
276 277 278  0
-279 276 0
279 -276 0
-280 279 277 0
280 -279 0
280 -277 0
-279 -277 0
-280 -278 0
281 282 283  0
-284 281 0
284 -281 0
-285 284 282 0
285 -284 0
285 -282 0
-284 -282 0
-285 -283 0
286 287 288  0
-289 286 0
289 -286 0
-290 289 287 0
290 -289 0
290 -287 0
-289 -287 0
-290 -288 0
291 292 293  0
-294 291 0
294 -291 0
-295 294 292 0
295 -294 0
295 -292 0
-294 -292 0
-295 -293 0
296 297 298  0
-299 296 0
299 -296 0
-300 299 297 0
300 -299 0
300 -297 0
-299 -297 0
-300 -298 0
301 302 303  0
-304 301 0
304 -301 0
-305 304 302 0
305 -304 0
305 -302 0
-304 -302 0
-305 -303 0
306 307 308  0
-309 306 0
309 -306 0
-310 309 307 0
310 -309 0
310 -307 0
-309 -307 0
-310 -308 0
311 312 313  0
-314 311 0
314 -311 0
-315 314 312 0
315 -314 0
315 -312 0
-314 -312 0
-315 -313 0
316 317 318  0
-319 316 0
319 -316 0
-320 319 317 0
320 -319 0
320 -317 0
-319 -317 0
-320 -318 0
321 322 323  0
-324 321 0
324 -321 0
-325 324 322 0
325 -324 0
325 -322 0
-324 -322 0
-325 -323 0
326 327 328  0
-329 326 0
329 -326 0
-330 329 327 0
330 -329 0
330 -327 0
-329 -327 0
-330 -328 0
331 332 333  0
-334 331 0
334 -331 0
-335 334 332 0
335 -334 0
335 -332 0
-334 -332 0
-335 -333 0
336 337 338  0
-339 336 0
339 -336 0
-340 339 337 0
340 -339 0
340 -337 0
-339 -337 0
-340 -338 0
341 342 343  0
-344 341 0
344 -341 0
-345 344 342 0
345 -344 0
345 -342 0
-344 -342 0
-345 -343 0
346 347 348  0
-349 346 0
349 -346 0
-350 349 347 0
350 -349 0
350 -347 0
-349 -347 0
-350 -348 0
351 352 353  0
-354 351 0
354 -351 0
-355 354 352 0
355 -354 0
355 -352 0
-354 -352 0
-355 -353 0
356 357 358  0
-359 356 0
359 -356 0
-360 359 357 0
360 -359 0
360 -357 0
-359 -357 0
-360 -358 0
361 362 363  0
-364 361 0
364 -361 0
-365 364 362 0
365 -364 0
365 -362 0
-364 -362 0
-365 -363 0
366 367 368  0
-369 366 0
369 -366 0
-370 369 367 0
370 -369 0
370 -367 0
-369 -367 0
-370 -368 0
371 372 373  0
-374 371 0
374 -371 0
-375 374 372 0
375 -374 0
375 -372 0
-374 -372 0
-375 -373 0
376 377 378  0
-379 376 0
379 -376 0
-380 379 377 0
380 -379 0
380 -377 0
-379 -377 0
-380 -378 0
381 382 383  0
-384 381 0
384 -381 0
-385 384 382 0
385 -384 0
385 -382 0
-384 -382 0
-385 -383 0
386 387 388  0
-389 386 0
389 -386 0
-390 389 387 0
390 -389 0
390 -387 0
-389 -387 0
-390 -388 0
391 392 393  0
-394 391 0
394 -391 0
-395 394 392 0
395 -394 0
395 -392 0
-394 -392 0
-395 -393 0
396 397 398  0
-399 396 0
399 -396 0
-400 399 397 0
400 -399 0
400 -397 0
-399 -397 0
-400 -398 0
401 402 403  0
-404 401 0
404 -401 0
-405 404 402 0
405 -404 0
405 -402 0
-404 -402 0
-405 -403 0
406 407 408  0
-409 406 0
409 -406 0
-410 409 407 0
410 -409 0
410 -407 0
-409 -407 0
-410 -408 0
411 412 413  0
-414 411 0
414 -411 0
-415 414 412 0
415 -414 0
415 -412 0
-414 -412 0
-415 -413 0
416 417 418  0
-419 416 0
419 -416 0
-420 419 417 0
420 -419 0
420 -417 0
-419 -417 0
-420 -418 0
421 422 423  0
-424 421 0
424 -421 0
-425 424 422 0
425 -424 0
425 -422 0
-424 -422 0
-425 -423 0
426 427 428  0
-429 426 0
429 -426 0
-430 429 427 0
430 -429 0
430 -427 0
-429 -427 0
-430 -428 0
431 432 433  0
-434 431 0
434 -431 0
-435 434 432 0
435 -434 0
435 -432 0
-434 -432 0
-435 -433 0
436 437 438  0
-439 436 0
439 -436 0
-440 439 437 0
440 -439 0
440 -437 0
-439 -437 0
-440 -438 0
441 442 443  0
-444 441 0
444 -441 0
-445 444 442 0
445 -444 0
445 -442 0
-444 -442 0
-445 -443 0
446 447 448  0
-449 446 0
449 -446 0
-450 449 447 0
450 -449 0
450 -447 0
-449 -447 0
-450 -448 0
451 452 453  0
-454 451 0
454 -451 0
-455 454 452 0
455 -454 0
455 -452 0
-454 -452 0
-455 -453 0
456 457 458  0
-459 456 0
459 -456 0
-460 459 457 0
460 -459 0
460 -457 0
-459 -457 0
-460 -458 0
461 462 463  0
-464 461 0
464 -461 0
-465 464 462 0
465 -464 0
465 -462 0
-464 -462 0
-465 -463 0
466 467 468  0
-469 466 0
469 -466 0
-470 469 467 0
470 -469 0
470 -467 0
-469 -467 0
-470 -468 0
471 472 473  0
-474 471 0
474 -471 0
-475 474 472 0
475 -474 0
475 -472 0
-474 -472 0
-475 -473 0
476 477 478  0
-479 476 0
479 -476 0
-480 479 477 0
480 -479 0
480 -477 0
-479 -477 0
-480 -478 0
481 482 483  0
-484 481 0
484 -481 0
-485 484 482 0
485 -484 0
485 -482 0
-484 -482 0
-485 -483 0
486 487 488  0
-489 486 0
489 -486 0
-490 489 487 0
490 -489 0
490 -487 0
-489 -487 0
-490 -488 0
491 492 493  0
-494 491 0
494 -491 0
-495 494 492 0
495 -494 0
495 -492 0
-494 -492 0
-495 -493 0
496 497 498  0
-499 496 0
499 -496 0
-500 499 497 0
500 -499 0
500 -497 0
-499 -497 0
-500 -498 0
501 502 503  0
-504 501 0
504 -501 0
-505 504 502 0
505 -504 0
505 -502 0
-504 -502 0
-505 -503 0
506 507 508  0
-509 506 0
509 -506 0
-510 509 507 0
510 -509 0
510 -507 0
-509 -507 0
-510 -508 0
511 512 513  0
-514 511 0
514 -511 0
-515 514 512 0
515 -514 0
515 -512 0
-514 -512 0
-515 -513 0
516 517 518  0
-519 516 0
519 -516 0
-520 519 517 0
520 -519 0
520 -517 0
-519 -517 0
-520 -518 0
521 522 523  0
-524 521 0
524 -521 0
-525 524 522 0
525 -524 0
525 -522 0
-524 -522 0
-525 -523 0
526 527 528  0
-529 526 0
529 -526 0
-530 529 527 0
530 -529 0
530 -527 0
-529 -527 0
-530 -528 0
531 532 533  0
-534 531 0
534 -531 0
-535 534 532 0
535 -534 0
535 -532 0
-534 -532 0
-535 -533 0
536 537 538  0
-539 536 0
539 -536 0
-540 539 537 0
540 -539 0
540 -537 0
-539 -537 0
-540 -538 0
541 542 543  0
-544 541 0
544 -541 0
-545 544 542 0
545 -544 0
545 -542 0
-544 -542 0
-545 -543 0
546 547 548  0
-549 546 0
549 -546 0
-550 549 547 0
550 -549 0
550 -547 0
-549 -547 0
-550 -548 0
551 552 553  0
-554 551 0
554 -551 0
-555 554 552 0
555 -554 0
555 -552 0
-554 -552 0
-555 -553 0
556 557 558  0
-559 556 0
559 -556 0
-560 559 557 0
560 -559 0
560 -557 0
-559 -557 0
-560 -558 0
561 562 563  0
-564 561 0
564 -561 0
-565 564 562 0
565 -564 0
565 -562 0
-564 -562 0
-565 -563 0
566 567 568  0
-569 566 0
569 -566 0
-570 569 567 0
570 -569 0
570 -567 0
-569 -567 0
-570 -568 0
571 572 573  0
-574 571 0
574 -571 0
-575 574 572 0
575 -574 0
575 -572 0
-574 -572 0
-575 -573 0
576 577 578  0
-579 576 0
579 -576 0
-580 579 577 0
580 -579 0
580 -577 0
-579 -577 0
-580 -578 0
581 582 583  0
-584 581 0
584 -581 0
-585 584 582 0
585 -584 0
585 -582 0
-584 -582 0
-585 -583 0
586 587 588  0
-589 586 0
589 -586 0
-590 589 587 0
590 -589 0
590 -587 0
-589 -587 0
-590 -588 0
591 592 593  0
-594 591 0
594 -591 0
-595 594 592 0
595 -594 0
595 -592 0
-594 -592 0
-595 -593 0
596 597 598  0
-599 596 0
599 -596 0
-600 599 597 0
600 -599 0
600 -597 0
-599 -597 0
-600 -598 0
601 602 603  0
-604 601 0
604 -601 0
-605 604 602 0
605 -604 0
605 -602 0
-604 -602 0
-605 -603 0
606 607 608  0
-609 606 0
609 -606 0
-610 609 607 0
610 -609 0
610 -607 0
-609 -607 0
-610 -608 0
611 612 613  0
-614 611 0
614 -611 0
-615 614 612 0
615 -614 0
615 -612 0
-614 -612 0
-615 -613 0
616 617 618  0
-619 616 0
619 -616 0
-620 619 617 0
620 -619 0
620 -617 0
-619 -617 0
-620 -618 0
621 622 623  0
-624 621 0
624 -621 0
-625 624 622 0
625 -624 0
625 -622 0
-624 -622 0
-625 -623 0
626 627 628  0
-629 626 0
629 -626 0
-630 629 627 0
630 -629 0
630 -627 0
-629 -627 0
-630 -628 0
631 632 633  0
-634 631 0
634 -631 0
-635 634 632 0
635 -634 0
635 -632 0
-634 -632 0
-635 -633 0
636 637 638  0
-639 636 0
639 -636 0
-640 639 637 0
640 -639 0
640 -637 0
-639 -637 0
-640 -638 0
641 642 643  0
-644 641 0
644 -641 0
-645 644 642 0
645 -644 0
645 -642 0
-644 -642 0
-645 -643 0
646 647 648  0
-649 646 0
649 -646 0
-650 649 647 0
650 -649 0
650 -647 0
-649 -647 0
-650 -648 0
651 652 653  0
-654 651 0
654 -651 0
-655 654 652 0
655 -654 0
655 -652 0
-654 -652 0
-655 -653 0
656 657 658  0
-659 656 0
659 -656 0
-660 659 657 0
660 -659 0
660 -657 0
-659 -657 0
-660 -658 0
661 662 663  0
-664 661 0
664 -661 0
-665 664 662 0
665 -664 0
665 -662 0
-664 -662 0
-665 -663 0
666 667 668  0
-669 666 0
669 -666 0
-670 669 667 0
670 -669 0
670 -667 0
-669 -667 0
-670 -668 0
671 672 673  0
-674 671 0
674 -671 0
-675 674 672 0
675 -674 0
675 -672 0
-674 -672 0
-675 -673 0
676 677 678  0
-679 676 0
679 -676 0
-680 679 677 0
680 -679 0
680 -677 0
-679 -677 0
-680 -678 0
681 682 683  0
-684 681 0
684 -681 0
-685 684 682 0
685 -684 0
685 -682 0
-684 -682 0
-685 -683 0
686 687 688  0
-689 686 0
689 -686 0
-690 689 687 0
690 -689 0
690 -687 0
-689 -687 0
-690 -688 0
691 692 693  0
-694 691 0
694 -691 0
-695 694 692 0
695 -694 0
695 -692 0
-694 -692 0
-695 -693 0
696 697 698  0
-699 696 0
699 -696 0
-700 699 697 0
700 -699 0
700 -697 0
-699 -697 0
-700 -698 0
701 702 703  0
-704 701 0
704 -701 0
-705 704 702 0
705 -704 0
705 -702 0
-704 -702 0
-705 -703 0
706 707 708  0
-709 706 0
709 -706 0
-710 709 707 0
710 -709 0
710 -707 0
-709 -707 0
-710 -708 0
711 712 713  0
-714 711 0
714 -711 0
-715 714 712 0
715 -714 0
715 -712 0
-714 -712 0
-715 -713 0
716 717 718  0
-719 716 0
719 -716 0
-720 719 717 0
720 -719 0
720 -717 0
-719 -717 0
-720 -718 0
721 722 723  0
-724 721 0
724 -721 0
-725 724 722 0
725 -724 0
725 -722 0
-724 -722 0
-725 -723 0
726 727 728  0
-729 726 0
729 -726 0
-730 729 727 0
730 -729 0
730 -727 0
-729 -727 0
-730 -728 0
731 732 733  0
-734 731 0
734 -731 0
-735 734 732 0
735 -734 0
735 -732 0
-734 -732 0
-735 -733 0
736 737 738  0
-739 736 0
739 -736 0
-740 739 737 0
740 -739 0
740 -737 0
-739 -737 0
-740 -738 0
741 742 743  0
-744 741 0
744 -741 0
-745 744 742 0
745 -744 0
745 -742 0
-744 -742 0
-745 -743 0
746 747 748  0
-749 746 0
749 -746 0
-750 749 747 0
750 -749 0
750 -747 0
-749 -747 0
-750 -748 0
751 752 753  0
-754 751 0
754 -751 0
-755 754 752 0
755 -754 0
755 -752 0
-754 -752 0
-755 -753 0
756 757 758  0
-759 756 0
759 -756 0
-760 759 757 0
760 -759 0
760 -757 0
-759 -757 0
-760 -758 0
761 762 763  0
-764 761 0
764 -761 0
-765 764 762 0
765 -764 0
765 -762 0
-764 -762 0
-765 -763 0
766 767 768  0
-769 766 0
769 -766 0
-770 769 767 0
770 -769 0
770 -767 0
-769 -767 0
-770 -768 0
771 772 773  0
-774 771 0
774 -771 0
-775 774 772 0
775 -774 0
775 -772 0
-774 -772 0
-775 -773 0
776 777 778  0
-779 776 0
779 -776 0
-780 779 777 0
780 -779 0
780 -777 0
-779 -777 0
-780 -778 0
781 782 783  0
-784 781 0
784 -781 0
-785 784 782 0
785 -784 0
785 -782 0
-784 -782 0
-785 -783 0
786 787 788  0
-789 786 0
789 -786 0
-790 789 787 0
790 -789 0
790 -787 0
-789 -787 0
-790 -788 0
791 792 793  0
-794 791 0
794 -791 0
-795 794 792 0
795 -794 0
795 -792 0
-794 -792 0
-795 -793 0
796 797 798  0
-799 796 0
799 -796 0
-800 799 797 0
800 -799 0
800 -797 0
-799 -797 0
-800 -798 0
801 802 803  0
-804 801 0
804 -801 0
-805 804 802 0
805 -804 0
805 -802 0
-804 -802 0
-805 -803 0
806 807 808  0
-809 806 0
809 -806 0
-810 809 807 0
810 -809 0
810 -807 0
-809 -807 0
-810 -808 0
811 812 813  0
-814 811 0
814 -811 0
-815 814 812 0
815 -814 0
815 -812 0
-814 -812 0
-815 -813 0
816 817 818  0
-819 816 0
819 -816 0
-820 819 817 0
820 -819 0
820 -817 0
-819 -817 0
-820 -818 0
821 822 823  0
-824 821 0
824 -821 0
-825 824 822 0
825 -824 0
825 -822 0
-824 -822 0
-825 -823 0
826 827 828  0
-829 826 0
829 -826 0
-830 829 827 0
830 -829 0
830 -827 0
-829 -827 0
-830 -828 0
831 832 833  0
-834 831 0
834 -831 0
-835 834 832 0
835 -834 0
835 -832 0
-834 -832 0
-835 -833 0
836 837 838  0
-839 836 0
839 -836 0
-840 839 837 0
840 -839 0
840 -837 0
-839 -837 0
-840 -838 0
841 842 843  0
-844 841 0
844 -841 0
-845 844 842 0
845 -844 0
845 -842 0
-844 -842 0
-845 -843 0
846 847 848  0
-849 846 0
849 -846 0
-850 849 847 0
850 -849 0
850 -847 0
-849 -847 0
-850 -848 0
851 852 853  0
-854 851 0
854 -851 0
-855 854 852 0
855 -854 0
855 -852 0
-854 -852 0
-855 -853 0
856 857 858  0
-859 856 0
859 -856 0
-860 859 857 0
860 -859 0
860 -857 0
-859 -857 0
-860 -858 0
861 862 863  0
-864 861 0
864 -861 0
-865 864 862 0
865 -864 0
865 -862 0
-864 -862 0
-865 -863 0
866 867 868  0
-869 866 0
869 -866 0
-870 869 867 0
870 -869 0
870 -867 0
-869 -867 0
-870 -868 0
871 872 873  0
-874 871 0
874 -871 0
-875 874 872 0
875 -874 0
875 -872 0
-874 -872 0
-875 -873 0
678 298 63 0
327 17 826 0
782 13 696 0
186 517 391 0
336 691 683 0
813 126 688 0
686 346 277 0
801 263 857 0
207 406 301 0
133 17 371 0
117 311 423 0
202 31 703 0
733 147 337 0
83 187 163 0
183 131 6 0
28 696 22 0
113 362 537 0
106 588 398 0
382 361 741 0
61 581 132 0
467 367 263 0
296 377 401 0
616 322 646 0
262 92 607 0
42 768 517 0
228 68 161 0
866 587 126 0
292 506 193 0
343 317 851 0
391 367 643 0
186 871 358 0
466 501 482 0
178 376 398 0
848 793 183 0
103 786 736 0
361 201 73 0
287 786 598 0
307 61 471 0
263 208 618 0
716 841 196 0
71 521 691 0
713 136 663 0
788 518 661 0
317 442 867 0
37 666 342 0
592 323 573 0
597 121 801 0
363 2 457 0
761 593 422 0
276 416 236 0
818 182 838 0
398 62 302 0
312 473 433 0
742 823 528 0
813 601 871 0
3 556 88 0
711 86 772 0
642 817 292 0
171 691 273 0
378 158 326 0
707 731 288 0
32 312 662 0
272 302 437 0
466 412 728 0
396 777 96 0
473 442 202 0
158 733 118 0
558 833 482 0
237 6 241 0
338 846 82 0
467 642 763 0
648 82 392 0
32 466 823 0
148 32 711 0
13 676 411 0
588 201 678 0
207 18 723 0
373 481 507 0
798 376 686 0
866 272 342 0
316 336 287 0
486 356 668 0
36 722 767 0
603 773 522 0
87 177 186 0
692 337 26 0
171 12 28 0
612 608 352 0
578 197 821 0
828 128 156 0
417 587 7 0
386 27 593 0
87 762 557 0
93 197 388 0
778 823 236 0
231 607 298 0
328 677 96 0
178 498 646 0
181 93 38 0
288 587 728 0
867 366 788 0
216 362 342 0
421 796 182 0
548 77 838 0
216 153 512 0
97 236 392 0
31 157 643 0
352 793 553 0
142 22 153 0
541 533 362 0
561 646 156 0
482 447 128 0
148 288 521 0
157 72 646 0
698 362 11 0
401 187 158 0
106 416 286 0
537 788 496 0
551 861 492 0
731 828 546 0
712 198 776 0
366 872 331 0
332 606 583 0
447 651 768 0
836 461 727 0
407 851 467 0
722 648 621 0
778 743 853 0
618 596 621 0
663 236 268 0
268 417 173 0
7 728 507 0
527 207 796 0
733 488 822 0
63 587 626 0
151 533 32 0
348 607 578 0
437 531 507 0
707 762 813 0
322 213 66 0
767 741 557 0
251 697 106 0
101 511 196 0
858 393 1 0
462 211 238 0
632 271 436 0
286 743 437 0
392 403 66 0
813 401 787 0
542 612 53 0
801 861 83 0
38 117 356 0
632 96 543 0
647 207 692 0
457 262 121 0
52 12 18 0
456 343 713 0
248 228 511 0
392 142 223 0
372 202 758 0
838 141 842 0
822 91 1 0
636 48 361 0
643 613 241 0
743 526 263 0
276 227 77 0
343 388 76 0
13 522 703 0
506 527 256 0
203 392 842 0
148 758 431 0
333 621 218 0
118 422 171 0
411 483 46 0
712 632 596 0
776 653 282 0
373 241 277 0
218 367 563 0
158 102 181 0
811 366 66 0
822 703 766 0
212 168 253 0
403 607 211 0
391 427 582 0
227 806 458 0
573 612 123 0
388 423 671 0
767 147 87 0
562 723 741 0
608 718 458 0
303 581 431 0
311 43 383 0
418 677 427 0
808 137 866 0
851 856 28 0
872 478 253 0
288 738 192 0
696 167 61 0
273 472 418 0
413 73 91 0
718 201 432 0
117 786 697 0
862 362 27 0
517 186 706 0
468 118 408 0
407 63 331 0
73 101 198 0
613 328 111 0
286 533 628 0
81 383 641 0
173 46 667 0
492 597 372 0
403 753 847 0
848 383 501 0
752 237 553 0
56 821 843 0
248 126 821 0
537 488 842 0
52 483 438 0
452 577 457 0
348 97 496 0
558 293 373 0
188 468 213 0
23 253 578 0
496 772 502 0
446 637 38 0
377 661 403 0
672 73 271 0
461 426 683 0
411 52 503 0
432 298 507 0
226 46 447 0
168 807 276 0
287 377 463 0
607 377 72 0
106 838 471 0
617 247 591 0
7 701 648 0
22 726 538 0
471 191 698 0
732 536 101 0
173 596 281 0
116 721 873 0
806 547 301 0
93 361 628 0
431 643 78 0
871 363 438 0
676 813 267 0
142 711 742 0
667 683 128 0
862 687 421 0
388 21 776 0
397 18 111 0
153 371 593 0
768 82 302 0
18 536 807 0
478 382 73 0
721 746 681 0
31 2 587 0
526 863 178 0
703 468 781 0
447 483 646 0
12 27 237 0
513 551 443 0
232 627 703 0
281 8 777 0
37 63 837 0
76 207 496 0
693 603 648 0
518 261 866 0
81 382 27 0
648 408 346 0
428 223 406 0
91 853 477 0
741 392 158 0
743 542 211 0
306 402 583 0
88 181 653 0
147 587 443 0
513 77 208 0
186 466 211 0
191 436 237 0
357 158 626 0
138 446 553 0
798 97 862 0
112 263 671 0
153 871 466 0
611 437 487 0
478 617 357 0
707 362 43 0
118 291 498 0
853 76 246 0
851 377 528 0
371 376 818 0
286 778 578 0
8 851 83 0
273 138 671 0
663 138 186 0
791 673 552 0
798 391 491 0
528 557 573 0
747 577 88 0
161 146 677 0
86 658 768 0
381 178 396 0
636 176 317 0
722 603 82 0
677 327 426 0
47 603 277 0
801 193 443 0
658 631 287 0
591 148 436 0
658 358 73 0
116 302 591 0
217 251 623 0
118 668 248 0
592 858 806 0
853 427 576 0
128 391 418 0
783 628 53 0
616 548 573 0
141 407 33 0
307 808 232 0
246 206 556 0
627 152 502 0
412 21 421 0
647 3 567 0
287 808 623 0
612 286 397 0
337 318 298 0
457 76 563 0
198 73 277 0
3 522 783 0
93 27 228 0
238 226 57 0
381 127 116 0
841 27 163 0
558 867 98 0
358 183 343 0
462 857 138 0
221 438 863 0
158 518 631 0
483 842 521 0
22 141 157 0
381 66 318 0
166 493 6 0
47 203 228 0
367 278 78 0
397 453 186 0
788 126 696 0
713 107 477 0
808 163 213 0
857 867 796 0
708 58 627 0
776 581 172 0
356 276 332 0
457 293 173 0
777 851 177 0
606 96 286 0
676 43 862 0
551 103 687 0
481 352 657 0
166 558 223 0
36 623 501 0
628 872 453 0
763 211 727 0
78 176 872 0
838 288 76 0
261 233 21 0
688 801 327 0
436 271 731 0
553 228 357 0
578 163 723 0
151 238 756 0
6 791 31 0
77 223 121 0
241 6 301 0
467 567 631 0
862 288 172 0
367 397 866 0
291 782 71 0
591 473 666 0
738 658 766 0
613 91 752 0
837 442 298 0
673 156 112 0
487 428 202 0
626 246 258 0
483 661 776 0
837 438 106 0
496 326 361 0
653 41 703 0
186 72 522 0
343 206 697 0
322 613 838 0
496 501 117 0
271 723 851 0
323 656 368 0
608 313 493 0
686 681 693 0
151 107 142 0
528 763 382 0
687 788 108 0
658 643 531 0
116 76 651 0
446 87 463 0
541 303 367 0
177 396 536 0
22 226 181 0
46 113 101 0
777 573 867 0
752 273 733 0
626 708 766 0
543 336 577 0
652 816 521 0
538 478 182 0
282 778 761 0
201 552 443 0
216 392 816 0
533 736 856 0
726 272 357 0
252 413 188 0
17 603 261 0
748 292 351 0
66 566 312 0
483 832 137 0
271 497 208 0
736 276 802 0
403 22 591 0
692 383 363 0
813 743 606 0
92 166 688 0
163 361 776 0
857 736 647 0
143 6 843 0
113 338 556 0
511 827 126 0
57 76 721 0
482 812 471 0
563 171 148 0
62 688 3 0
347 781 202 0
707 316 567 0
537 631 282 0
182 611 421 0
381 783 653 0
446 193 198 0
271 542 697 0
523 172 832 0
277 303 376 0
652 222 608 0
232 8 411 0
706 116 281 0
487 182 87 0
116 43 143 0
151 831 241 0
256 737 672 0
238 727 758 0
58 817 793 0
258 46 332 0
491 751 742 0
136 366 43 0
803 663 397 0
673 793 577 0
418 623 26 0
537 332 852 0
422 93 752 0
833 291 348 0
52 153 643 0
558 567 418 0
31 122 261 0
452 92 361 0
563 538 702 0
552 31 603 0
438 627 352 0
491 17 637 0
597 731 522 0
432 306 831 0
742 771 102 0
342 668 433 0
791 297 553 0
858 152 618 0
697 652 33 0
32 6 441 0
308 411 647 0
11 22 382 0
253 612 843 0
847 296 446 0
241 873 286 0
242 117 578 0
511 338 781 0
871 852 326 0
731 383 813 0
257 316 428 0
577 206 223 0
461 267 271 0
531 97 526 0
221 612 428 0
558 606 816 0
483 603 218 0
372 562 378 0
698 867 308 0
341 786 143 0
392 673 463 0
57 27 531 0
373 696 662 0
656 871 402 0
57 716 593 0
836 566 3 0
261 113 598 0
416 667 148 0
202 822 341 0
502 856 142 0
213 337 621 0
706 398 181 0
467 212 608 0
362 57 16 0
422 567 627 0
748 696 518 0
432 451 173 0
67 123 546 0
407 547 341 0
626 847 61 0
36 218 26 0
301 86 292 0
276 663 408 0
138 252 53 0
136 246 11 0
358 248 783 0
432 501 843 0
546 48 637 0
437 162 346 0
286 783 356 0
846 721 418 0
143 718 148 0
331 691 802 0
718 121 63 0
866 837 768 0
458 47 608 0
702 203 401 0
6 816 121 0
46 873 612 0
642 178 381 0
807 577 36 0
323 68 172 0
648 97 762 0
338 68 862 0
392 292 126 0
518 408 796 0
297 72 537 0
601 191 18 0
801 768 688 0
558 393 538 0
526 461 53 0
383 392 592 0
582 246 792 0
731 503 481 0
388 282 17 0
193 766 486 0
803 172 332 0
146 853 692 0
542 268 176 0
252 791 242 0
248 242 857 0
721 491 871 0
553 628 537 0
76 758 256 0
96 393 817 0
588 838 856 0
452 608 492 0
773 746 461 0
732 381 762 0
437 42 753 0
358 818 188 0
142 508 587 0
366 172 12 0
418 182 246 0
442 811 522 0
351 47 92 0
96 866 756 0
496 67 253 0
317 586 357 0
452 526 296 0
851 63 596 0
257 161 191 0
712 171 373 0
741 748 193 0
296 38 807 0
3 638 686 0
866 57 87 0
192 828 581 0
551 16 672 0
537 738 798 0
792 228 748 0
792 751 773 0
866 643 217 0
31 568 87 0
143 337 207 0
327 67 558 0
476 446 211 0
202 317 33 0
91 312 872 0
33 367 236 0
351 577 682 0
507 726 377 0
833 398 496 0
546 137 446 0
246 453 491 0
131 817 756 0
3 786 28 0
691 638 558 0
38 593 326 0
476 632 83 0
626 861 578 0
206 23 311 0
176 672 113 0
81 352 87 0
723 262 386 0
496 322 476 0
233 482 686 0
66 583 681 0
862 611 338 0
137 157 432 0
507 446 416 0
737 731 666 0
798 413 476 0
202 873 682 0
407 283 228 0
873 648 463 0
376 601 437 0
548 133 741 0
191 843 653 0
286 483 627 0
292 338 193 0
22 131 687 0
142 696 331 0
652 402 477 0
282 362 336 0
362 622 576 0
621 392 228 0
217 332 413 0
366 306 577 0
837 552 628 0
207 527 818 0
536 706 213 0
26 313 231 0
147 681 378 0
132 367 548 0
583 118 476 0
348 276 77 0
128 797 346 0
58 746 713 0
241 472 422 0
498 553 248 0
328 176 662 0
212 126 116 0
167 733 793 0
58 306 538 0
328 742 541 0
157 477 592 0
241 817 703 0
727 117 558 0
167 83 41 0
211 661 257 0
833 202 512 0
582 371 136 0
357 832 456 0
393 23 866 0
863 202 48 0
741 753 323 0
513 151 327 0
848 48 163 0
206 23 683 0
61 858 207 0
603 672 667 0
637 683 76 0
846 698 733 0
402 307 181 0
202 668 393 0
738 717 368 0
428 582 681 0
131 593 553 0
576 518 272 0
11 823 311 0
448 227 597 0
571 602 146 0
706 72 113 0
3 471 581 0
221 3 167 0
278 372 673 0
